(set-logic BV) (define-fun hd04 ((x (_ BitVec 32))) (_ BitVec 32) (bvxor x (bvsub x #x00000001))) (synth-fun f ((x (_ BitVec 32))) (_ BitVec 32)) (declare-var x (_ BitVec 32)) (constraint (= (hd04 x) (f x))) (check-synth)
